(set-logic ALL)
(set-option :produce-models true)

;; helper / uninterpreted declarations for predicates used by encoding
(declare-fun in (String (Array String Bool)) Bool)
(declare-fun add_to_set (String String) Bool)
(declare-fun not_empty (String) Bool)

(declare-fun authenticated (String) Bool)
(declare-fun token_present (String) Bool)
(declare-fun cart_contains (String String) Bool)
(declare-fun order_recorded (String String) Bool)
(declare-fun result_is_restaurant_list () Bool)
(declare-fun result_is_menu () Bool)
(declare-fun result_is_cart () Bool)
(declare-fun review_added () Bool)

;; Variable declarations (String type)
(declare-fun v1 () String)
(declare-fun v2 () String)
(declare-fun v3 () String)
(declare-fun v4 () String)
(declare-fun v5 () String)
(declare-fun v6 () String)
(declare-fun v7 () String)
(declare-fun v8 () String)
(declare-fun v9 () String)
(declare-fun v10 () String)
(declare-fun v11 () String)
(declare-fun v12 () String)
(declare-fun v13 () String)
(declare-fun v14 () String)
(declare-fun v15 () String)
(declare-fun v16 () String)
(declare-fun v17 () String)
(declare-fun v18 () String)
(declare-fun v19 () String)

;; Map declarations (Array String String/Bool)
; Map: T
(declare-const Dom_T (Array String Bool))
(declare-const Val_T (Array String String))

; Map: U
(declare-const Dom_U (Array String Bool))
(declare-const Val_U (Array String String))

;; Domain arrays left unconstrained initially

(assert (! (= v1 "A") :named c1))
(assert (! (= v2 "B") :named c2))
(assert (! (and (select Dom_U v1) (= (select Val_U v1) v2)) :named c3))
(assert (! (authenticated v1) :named c4))
(assert (! (token_present v3) :named c5))
(assert (! (result_is_restaurant_list) :named c6))
(assert (! (= v4 "C") :named c7))
(assert (! (token_present v5) :named c8))
(assert (! (result_is_menu) :named c9))
(assert (! (= v6 "E") :named c10))
(assert (! (= v7 "C") :named c11))
(assert (! (= v8 "D") :named c12))
(assert (! (token_present v9) :named c13))
(assert (! (cart_contains v10 v7) :named c14))
(assert (! (token_present v11) :named c15))
(assert (! (result_is_cart) :named c16))
(assert (! (= v12 "D") :named c17))
(assert (! (token_present v13) :named c18))
(assert (! (order_recorded v12 v14) :named c19))
(assert (! (= v15 "F") :named c20))
(assert (! (= v16 "H") :named c21))
(assert (! (= v17 "G") :named c22))
(assert (! (= v18 "E") :named c23))
(assert (! (token_present v19) :named c24))
(assert (! (review_added) :named c25))

(check-sat)
(get-model)
